NAME: a280
TYPE: TOUR
DIMENSION: 280
TOUR_SECTION
171
172
170
169
168
167
166
165
164
163
162
161
175
160
159
158
157
119
120
121
122
123
124
125
126
127
128
129
154
155
153
156
152
151
177
176
181
180
179
182
183
184
185
187
186
189
188
190
191
192
178
21
130
20
131
19
132
18
133
134
135
136
137
138
139
140
141
142
143
144
145
199
198
197
194
193
195
196
201
200
202
203
204
205
206
207
208
209
252
255
256
253
254
257
258
259
260
261
262
263
264
210
211
214
215
218
219
222
223
224
225
226
227
228
229
230
251
250
247
244
241
242
243
240
245
239
238
231
246
232
233
234
235
236
237
249
248
212
213
216
217
220
221
146
147
148
149
150
266
265
267
268
269
270
17
30
31
32
29
28
27
26
22
25
23
24
14
13
15
12
11
10
8
7
6
276
275
274
273
272
271
16
277
4
279
278
3
280
1
2
5
9
33
34
101
100
99
102
103
104
105
106
107
173
174
108
110
111
114
113
87
84
83
88
112
82
81
89
90
91
92
93
94
95
96
97
98
109
80
79
85
86
116
65
64
66
67
68
69
70
71
72
73
74
75
76
77
78
115
117
118
62
63
59
44
45
46
47
48
49
50
51
52
53
54
55
56
57
58
61
60
43
42
41
40
39
38
35
36
37
EOF
